
===== New CPLEX run =====
Instance: /home/yorig/tuner/mpils-tests/instances/miplib/easy/lotsize.mps
Config: /scratch/yorig/mpils-results-grid-seconds-5-watchdog/easy/24proc/seed-5/4_lotsize_seed-5_20260504_011421/expansion/config_param_CPXPARAM_MIP_Strategy_Dive_3_iter_1.prm
========================

Selected objective sense:  MINIMIZE
Selected objective  name:  R1921
Selected RHS        name:  B
Selected bound      name:  BOUND
Wall watchdog: enabled factor=1 grace=1 limit=6 seconds
Version identifier: 22.1.2.0 | 2024-11-26 | 0edbb82fd
CPXPARAM_Threads                                 8
CPXPARAM_Parallel                                1
CPXPARAM_MIP_Cuts_Cliques                        -1
CPXPARAM_MIP_Cuts_Implied                        1
CPXPARAM_MIP_Limits_GomoryCand                   25
CPXPARAM_MIP_Cuts_Gomory                         1
CPXPARAM_MIP_Cuts_PathCut                        2
CPXPARAM_MIP_Cuts_Disjunctive                    -1
CPXPARAM_Emphasis_MIP                            1
CPXPARAM_MIP_Strategy_Dive                       3
CPXPARAM_TimeLimit                               5
Tried aggregator 1 time.
MIP Presolve eliminated 595 rows and 0 columns.
MIP Presolve added 1190 rows and 0 columns.
MIP Presolve modified 10 coefficients.
Reduced MIP has 2515 rows, 2985 columns, and 7755 nonzeros.
Reduced MIP has 1195 binaries, 0 generals, 0 SOSs, and 0 indicators.
Presolve time = 0.00 sec. (4.53 ticks)
Probing fixed 0 vars, tightened 5487 bounds.
Probing time = 0.01 sec. (18.38 ticks)
Tried aggregator 2 times.
Detecting symmetries...
MIP Presolve modified 1206 coefficients.
Aggregator did 10 substitutions.
Reduced MIP has 2505 rows, 2975 columns, and 7735 nonzeros.
Reduced MIP has 1195 binaries, 0 generals, 0 SOSs, and 0 indicators.
Presolve time = 0.00 sec. (6.66 ticks)
Probing fixed 0 vars, tightened 2401 bounds.
Probing time = 0.00 sec. (6.41 ticks)
Clique table members: 190.
MIP emphasis: integer feasibility.
MIP search method: dynamic search.
Parallel mode: deterministic, using up to 8 threads.
Root relaxation solution time = 0.01 sec. (9.71 ticks)

        Nodes                                         Cuts/
   Node  Left     Objective  IInf  Best Integer    Best Bound    ItCnt     Gap

      0     0   348385.3466   472                 348385.3466      882         
      0     0   572993.6826   462                   Cuts: 726     1894         
      0     0   807159.4456   704                   Cuts: 726     2768         
      0     0   945132.1728   699                   Cuts: 726     3494         
*     0+    0                       1.01740e+07   945132.1728            90.71%
*     0+    0                      7973370.0000   945132.1728            88.15%
Detecting symmetries...
      0     2   945132.1728   699  7973370.0000   945132.1728     3494   88.15%
Elapsed time = 0.40 sec. (557.48 ticks, tree = 0.02 MB, solutions = 2)
    274   189   997733.5881   755  7973370.0000   946591.7219     8292   88.13%
    764   655  1038512.2604   636  7973370.0000   946591.7219    13919   88.13%
   1353  1225  1129209.2971   542  7973370.0000   946591.7219    22906   88.13%
   1659  1369  1148079.4322   515  7973370.0000   946591.7219    25569   88.13%

Performing restart 1

Repeating presolve.
Tried aggregator 1 time.
MIP Presolve modified 1154 coefficients.
Reduced MIP has 2505 rows, 2975 columns, and 7735 nonzeros.
Reduced MIP has 1195 binaries, 0 generals, 0 SOSs, and 0 indicators.
Presolve time = 0.00 sec. (3.80 ticks)
Tried aggregator 1 time.
MIP Presolve modified 1007 coefficients.
Reduced MIP has 2505 rows, 2975 columns, and 7735 nonzeros.
Reduced MIP has 1195 binaries, 0 generals, 0 SOSs, and 0 indicators.
Presolve time = 0.00 sec. (5.12 ticks)
Represolve time = 0.02 sec. (18.38 ticks)
   1660     0  1092414.9569   736  7973370.0000     Cuts: 726    33035   86.30%
   1660     0  1189991.1743   711  7973370.0000     Cuts: 726    33793   85.08%
   1660     0  1266467.3932   735  7973370.0000     Cuts: 726    34551   84.12%
   1660     2  1266467.3932   735  7973370.0000  1266467.3932    34551   84.12%
   1675    17  1279107.0096   710  7973370.0000  1266542.8886    35185   84.12%
   1697    39  1294969.2353   628  7973370.0000  1266542.8886    35750   84.12%
   1716    54  1358380.9518   634  7973370.0000  1266542.8886    37075   84.12%
   1723    57  1316539.0360   732  7973370.0000  1266542.8886    37635   84.12%
   1845   145  1456008.7266   565  7973370.0000  1272094.5516    73380   84.05%
Elapsed time = 3.88 sec. (5236.75 ticks, tree = 0.26 MB, solutions = 2)
*  1881+  141                      2019601.0000  1272094.5516            37.01%
   2351   518  1431385.1277   554  2019601.0000  1272094.5516    94790   37.01%
*  2370+  576                      1961150.0000  1272094.5516            35.14%
*  2428+  623                      1960118.0000  1272094.5516            35.10%
*  2474+  512                      1758014.0000  1272094.5516            27.64%
*  2477+  512                      1732625.0000  1272094.5516            26.58%

Cover cuts applied:  23
Implied bound cuts applied:  14
Flow cuts applied:  540
Mixed integer rounding cuts applied:  1025
Flow path cuts applied:  119
Multi commodity flow cuts applied:  20
Lift and project cuts applied:  13
Gomory fractional cuts applied:  1

Root node processing (before b&c):
  Real time             =    0.39 sec. (553.71 ticks)
Parallel b&c, 8 threads:
  Real time             =    4.61 sec. (6306.30 ticks)
  Sync time (average)   =    0.38 sec.
  Wait time (average)   =    0.00 sec.
                          ------------
Total (root+branch&cut) =    5.00 sec. (6860.01 ticks)
Gap: 26.44%
Upper bound: 1.73262e+06
Lower bound: 1.27455e+06
Termination status: Normal
End of CPLEX run. Time: 5.00523 seconds

===== New CPLEX run =====
Instance: /home/yorig/tuner/mpils-tests/instances/miplib/easy/lotsize.mps
Config: /scratch/yorig/mpils-results-grid-seconds-5-watchdog/easy/24proc/seed-5/4_lotsize_seed-5_20260504_011421/expansion/config_param_CPXPARAM_MIP_Limits_ProbeTime_0_iter_1.prm
========================

Selected objective sense:  MINIMIZE
Selected objective  name:  R1921
Selected RHS        name:  B
Selected bound      name:  BOUND
Wall watchdog: enabled factor=1 grace=1 limit=6 seconds
Version identifier: 22.1.2.0 | 2024-11-26 | 0edbb82fd
CPXPARAM_Threads                                 8
CPXPARAM_Parallel                                1
CPXPARAM_MIP_Cuts_Cliques                        -1
CPXPARAM_MIP_Cuts_Implied                        1
CPXPARAM_MIP_Limits_GomoryCand                   25
CPXPARAM_MIP_Cuts_Gomory                         1
CPXPARAM_MIP_Cuts_PathCut                        2
CPXPARAM_MIP_Cuts_Disjunctive                    -1
CPXPARAM_Emphasis_MIP                            1
CPXPARAM_TimeLimit                               5
CPXPARAM_MIP_Limits_ProbeTime                    0
Tried aggregator 1 time.
MIP Presolve eliminated 595 rows and 0 columns.
MIP Presolve added 1190 rows and 0 columns.
MIP Presolve modified 10 coefficients.
Reduced MIP has 2515 rows, 2985 columns, and 7755 nonzeros.
Reduced MIP has 1195 binaries, 0 generals, 0 SOSs, and 0 indicators.
Presolve time = 0.00 sec. (4.53 ticks)
Tried aggregator 1 time.
Detecting symmetries...
MIP Presolve modified 270 coefficients.
Reduced MIP has 2515 rows, 2985 columns, and 7755 nonzeros.
Reduced MIP has 1195 binaries, 0 generals, 0 SOSs, and 0 indicators.
Presolve time = 0.00 sec. (5.03 ticks)
Clique table members: 125.
MIP emphasis: integer feasibility.
MIP search method: dynamic search.
Parallel mode: deterministic, using up to 8 threads.
Root relaxation solution time = 0.01 sec. (9.97 ticks)

        Nodes                                         Cuts/
   Node  Left     Objective  IInf  Best Integer    Best Bound    ItCnt     Gap

      0     0   348385.3466   473                 348385.3466      895         
      0     0   564127.9567   460                   Cuts: 728     1918         
      0     0   803716.5463   702                   Cuts: 728     2790         
*     0+    0                       1.01863e+07   803716.5463            92.11%
*     0+    0                      7916314.0000   803716.5463            89.85%
      0     0   943859.6692   701  7916314.0000     Cuts: 728     3559   88.08%
Detecting symmetries...
      0     2   944650.4068   694  7916314.0000   943859.6692     3559   88.08%
Elapsed time = 0.36 sec. (518.60 ticks, tree = 0.02 MB, solutions = 2)
    252   211   971893.3422   754  7916314.0000   946685.4637     8640   88.04%
    646   536   989554.9708   680  7916314.0000   946685.4637    13005   88.04%
   1237  1029  1074234.1635   514  7916314.0000   946685.4637    18573   88.04%
   1722  1535  1514359.9393   319  7916314.0000   946685.4637    25442   88.04%

Performing restart 1

Repeating presolve.
Tried aggregator 2 times.
MIP Presolve modified 1204 coefficients.
Aggregator did 7 substitutions.
Reduced MIP has 2508 rows, 2978 columns, and 7741 nonzeros.
Reduced MIP has 1195 binaries, 0 generals, 0 SOSs, and 0 indicators.
Presolve time = 0.00 sec. (5.39 ticks)
Tried aggregator 1 time.
MIP Presolve modified 8 coefficients.
Reduced MIP has 2508 rows, 2978 columns, and 7741 nonzeros.
Reduced MIP has 1195 binaries, 0 generals, 0 SOSs, and 0 indicators.
Presolve time = 0.00 sec. (5.02 ticks)
Represolve time = 0.01 sec. (14.56 ticks)
*  1747+    0                      7463572.0000   956613.6681            87.18%
   1747     0  1075840.0746   741  7463572.0000     Cuts: 727    31669   85.59%
   1747     0  1173996.3030   694  7463572.0000     Cuts: 727    32380   84.27%
   1747     0  1242326.1291   713  7463572.0000     Cuts: 727    33105   83.35%
   1747     2  1242326.1291   713  7463572.0000  1242326.1291    33105   83.35%
   1757    12  1252409.0343   652  7463572.0000  1242332.3646    33371   83.35%
   1780     7  1250023.5572   672  7463572.0000  1242332.3646    33341   83.35%
   1790    45  1321431.8146   715  7463572.0000  1242332.3646    40191   83.35%
   1847    85  1343437.6091   627  7463572.0000  1242332.3646    49639   83.35%
   2471   572  1356444.4866   729  7463572.0000  1250110.2180    79298   83.25%
Elapsed time = 3.89 sec. (5118.40 ticks, tree = 0.71 MB, solutions = 3)
*  2627+  493                      1789135.0000  1250110.2180            30.13%
*  2754+  809                      1783483.0000  1250110.2180            29.91%
*  2839+  866                      1748537.0000  1250110.2180            28.51%
*  3523+ 1459                      1738316.0000  1250110.2180            28.08%
*  3545+ 1459                      1703797.0000  1250110.2180            26.63%
*  3565+ 1459                      1669274.0000  1250110.2180            25.11%
*  3853+ 1662                      1595594.0000  1250110.2180            21.65%
*  3881+ 1661                      1585210.0000  1250110.2180            21.14%
   3900  1740  1598643.2836   156  1585210.0000  1250110.2180   117210   21.14%
*  3937+ 1661                      1582987.0000  1250110.2180            21.03%
*  3961+ 1660                      1574179.0000  1250110.2180            20.59%
*  3975+ 1660                      1573934.0000  1250110.2180            20.57%
*  4017+ 1586                      1558574.0000  1250110.2180            19.79%
*  4030+ 1586                      1550257.0000  1252284.8981            19.22%
*  4047+ 1586                      1547713.0000  1252284.8981            19.09%
*  4057+ 1586                      1547101.0000  1252284.8981            19.06%

Cover cuts applied:  17
Implied bound cuts applied:  2
Flow cuts applied:  578
Mixed integer rounding cuts applied:  1081
Flow path cuts applied:  128
Multi commodity flow cuts applied:  16
Lift and project cuts applied:  6
Gomory fractional cuts applied:  1

Root node processing (before b&c):
  Real time             =    0.36 sec. (516.67 ticks)
Parallel b&c, 8 threads:
  Real time             =    4.65 sec. (6066.99 ticks)
  Sync time (average)   =    0.32 sec.
  Wait time (average)   =    0.00 sec.
                          ------------
Total (root+branch&cut) =    5.01 sec. (6583.66 ticks)
Gap: 19.06%
Upper bound: 1.5471e+06
Lower bound: 1.25228e+06
Termination status: Normal
End of CPLEX run. Time: 5.00651 seconds
